(set-logic LIA)
(set-info :license "https://creativecommons.org/licenses/by/4.0/")
(set-info :status "sat")
(set-info :smt-lib-version "2.6")
(declare-fun c_old(~a29~0) () Int)
(declare-fun c_~a29~0 () Int)
(assert
  (and
    (exists ((v_prenex_81 Int) (quotient_0 Int) (reminder_1 Int))
      (and
        (<= (* (- 1) quotient_0) 0)
        (<= (* (- 1) v_prenex_81) 0)
        (<= (+ (* 1 c_~a29~0) (* (- 1) reminder_1)) 300021)
        (<= (+ (* (- 1) v_prenex_81) (* 5 quotient_0)) 0)
        (<= (+ (* 1 v_prenex_81) (* (- 5) quotient_0)) 4)
        (<= (+ (* (- 4) quotient_0) (* 299978 reminder_1)) 0)
        (<= (+ (* 4 quotient_0) (* (- 299978) reminder_1)) 299977)
      )
    )
    (not
      (or
        (exists ((v_~a29~0_1040 Int) (quotient_2 Int) (quotient_3 Int) (reminder_4 Int))
          (and
            (<= (* (- 1) quotient_2) (- 403018))
            (<= (* 1 v_~a29~0_1040) (- 1))
            (<= (* (- 1) reminder_4) 0)
            (<= (* 1 reminder_4) 4)
            (<= (+ (* 1 c_~a29~0) (* (- 1) quotient_3)) 0)
            (<= (+ (* (- 1) c_old(~a29~0)) (* 1 v_~a29~0_1040)) 0)
            (not
              (= (* 1 reminder_4) 0)
            )
            (= (+ (* 1 v_~a29~0_1040) (* (- 5) quotient_2) (* (- 1) reminder_4)) 0)
            (<= (+ (* (- 1) quotient_2) (* 5 quotient_3)) (- 403018))
            (<= (+ (* 1 quotient_2) (* (- 5) quotient_3)) 403022)
          )
        )
        (exists ((v_~a29~0_1040 Int) (quotient_5 Int) (quotient_6 Int) (reminder_7 Int))
          (and
            (<= (* (- 1) quotient_5) (- 403019))
            (= (* 1 reminder_7) 0)
            (<= (+ (* (- 1) c_old(~a29~0)) (* 1 v_~a29~0_1040)) 0)
            (<= (+ (* 1 c_~a29~0) (* (- 1) quotient_6)) 0)
            (= (+ (* 1 v_~a29~0_1040) (* (- 5) quotient_5) (* (- 1) reminder_7)) 0)
            (<= (+ (* (- 1) quotient_5) (* 5 quotient_6)) (- 403019))
            (<= (+ (* 1 quotient_5) (* (- 5) quotient_6)) 403023)
          )
        )
        (exists ((v_~a29~0_1040 Int) (quotient_10 Int) (reminder_11 Int) (quotient_8 Int) (reminder_9 Int))
          (and
            (<= (* 1 quotient_8) 403018)
            (= (* 1 reminder_9) 0)
            (<= (+ (* (- 1) c_old(~a29~0)) (* 1 v_~a29~0_1040)) 0)
            (<= (+ (* 1 c_~a29~0) (* (- 1) quotient_10)) 1)
            (not
              (= (* 1 reminder_11) 0)
            )
            (= (+ (* 1 v_~a29~0_1040) (* (- 5) quotient_8) (* (- 1) reminder_9)) 0)
            (<= (+ (* (- 1) quotient_8) (* 5 quotient_10)) (- 403019))
            (<= (+ (* 1 quotient_8) (* (- 5) quotient_10)) 403023)
            (<= (+ (* (- 1) quotient_8) (* 5 reminder_11)) 1)
            (<= (+ (* 1 quotient_8) (* (- 5) reminder_11)) 3)
          )
        )
        (exists ((v_~a29~0_1040 Int) (quotient_12 Int) (reminder_13 Int) (quotient_14 Int))
          (and
            (<= (* (- 1) v_~a29~0_1040) 0)
            (= (* 1 reminder_13) 0)
            (<= (+ (* (- 1) c_old(~a29~0)) (* 1 v_~a29~0_1040)) 0)
            (<= (+ (* 1 c_~a29~0) (* (- 1) quotient_14)) 0)
            (<= (+ (* (- 1) v_~a29~0_1040) (* 5 quotient_12)) 0)
            (<= (+ (* 1 v_~a29~0_1040) (* (- 5) quotient_12)) 4)
            (<= (+ (* (- 1) quotient_12) (* 5 reminder_13)) 1)
            (<= (+ (* 1 quotient_12) (* (- 5) reminder_13)) 3)
            (<= (+ (* (- 1) quotient_12) (* 5 quotient_14)) (- 403019))
            (<= (+ (* 1 quotient_12) (* (- 5) quotient_14)) 403023)
          )
        )
        (exists ((v_~a29~0_1040 Int) (quotient_15 Int) (reminder_16 Int) (quotient_17 Int) (reminder_18 Int))
          (and
            (= (* 1 reminder_16) 0)
            (= (* 1 reminder_18) 0)
            (<= (+ (* (- 1) c_old(~a29~0)) (* 1 v_~a29~0_1040)) 0)
            (<= (+ (* 1 c_~a29~0) (* (- 1) quotient_17)) 0)
            (= (+ (* 1 v_~a29~0_1040) (* (- 5) quotient_15) (* (- 1) reminder_18)) 0)
            (<= (+ (* (- 1) quotient_15) (* 5 reminder_16)) 1)
            (<= (+ (* 1 quotient_15) (* (- 5) reminder_16)) 3)
            (<= (+ (* (- 1) quotient_15) (* 5 quotient_17)) (- 403019))
            (<= (+ (* 1 quotient_15) (* (- 5) quotient_17)) 403023)
          )
        )
        (exists ((v_~a29~0_1040 Int) (quotient_19 Int) (quotient_20 Int) (reminder_21 Int) (reminder_22 Int))
          (and
            (<= (* 1 v_~a29~0_1040) (- 1))
            (<= (* 1 quotient_19) 403017)
            (<= (* (- 1) reminder_22) 0)
            (<= (* 1 reminder_22) 4)
            (<= (+ (* 1 c_~a29~0) (* (- 1) quotient_20)) 1)
            (<= (+ (* (- 1) c_old(~a29~0)) (* 1 v_~a29~0_1040)) 0)
            (not
              (= (* 1 reminder_21) 0)
            )
            (not
              (= (* 1 reminder_22) 0)
            )
            (= (+ (* 1 v_~a29~0_1040) (* (- 5) quotient_19) (* (- 1) reminder_22)) 0)
            (<= (+ (* (- 1) quotient_19) (* 5 quotient_20)) (- 403018))
            (<= (+ (* 1 quotient_19) (* (- 5) quotient_20)) 403022)
            (<= (+ (* (- 1) quotient_19) (* 5 reminder_21)) 2)
            (<= (+ (* 1 quotient_19) (* (- 5) reminder_21)) 2)
          )
        )
        (exists ((v_~a29~0_1040 Int) (quotient_23 Int) (quotient_24 Int) (reminder_25 Int))
          (and
            (<= (* (- 1) v_~a29~0_1040) 0)
            (<= (* 1 quotient_23) 403018)
            (<= (+ (* (- 1) c_old(~a29~0)) (* 1 v_~a29~0_1040)) 0)
            (<= (+ (* 1 c_~a29~0) (* (- 1) quotient_24)) 1)
            (not
              (= (* 1 reminder_25) 0)
            )
            (<= (+ (* (- 1) v_~a29~0_1040) (* 5 quotient_23)) 0)
            (<= (+ (* 1 v_~a29~0_1040) (* (- 5) quotient_23)) 4)
            (<= (+ (* (- 1) quotient_23) (* 5 quotient_24)) (- 403019))
            (<= (+ (* 1 quotient_23) (* (- 5) quotient_24)) 403023)
            (<= (+ (* (- 1) quotient_23) (* 5 reminder_25)) 1)
            (<= (+ (* 1 quotient_23) (* (- 5) reminder_25)) 3)
          )
        )
        (exists ((v_~a29~0_1040 Int) (quotient_28 Int) (reminder_29 Int) (quotient_26 Int) (reminder_27 Int))
          (and
            (= (* 1 reminder_27) 0)
            (<= (* 1 v_~a29~0_1040) (- 1))
            (<= (* (- 1) reminder_29) 0)
            (<= (* 1 reminder_29) 4)
            (<= (+ (* 1 c_~a29~0) (* (- 1) quotient_28)) 0)
            (<= (+ (* (- 1) c_old(~a29~0)) (* 1 v_~a29~0_1040)) 0)
            (not
              (= (* 1 reminder_29) 0)
            )
            (= (+ (* 1 v_~a29~0_1040) (* (- 5) quotient_26) (* (- 1) reminder_29)) 0)
            (<= (+ (* (- 1) quotient_26) (* 5 reminder_27)) 2)
            (<= (+ (* 1 quotient_26) (* (- 5) reminder_27)) 2)
            (<= (+ (* (- 1) quotient_26) (* 5 quotient_28)) (- 403018))
            (<= (+ (* 1 quotient_26) (* (- 5) quotient_28)) 403022)
          )
        )
        (exists ((v_~a29~0_1040 Int) (quotient_30 Int) (quotient_31 Int))
          (and
            (<= (* (- 1) v_~a29~0_1040) 0)
            (<= (* (- 1) quotient_30) (- 403019))
            (<= (+ (* (- 1) c_old(~a29~0)) (* 1 v_~a29~0_1040)) 0)
            (<= (+ (* 1 c_~a29~0) (* (- 1) quotient_31)) 0)
            (<= (+ (* (- 1) v_~a29~0_1040) (* 5 quotient_30)) 0)
            (<= (+ (* 1 v_~a29~0_1040) (* (- 5) quotient_30)) 4)
            (<= (+ (* (- 1) quotient_30) (* 5 quotient_31)) (- 403019))
            (<= (+ (* 1 quotient_30) (* (- 5) quotient_31)) 403023)
          )
        )
      )
    )
  )
)
(check-sat)

